HUN,8,6,462
5,81,3,9,1,85,2,71,4,28,0,70
1,17,4,37,3,10,5,23,0,72,2,17
1,21,3,47,4,81,0,4,5,62,2,36
4,4,3,16,0,13,2,81,5,77,1,66
3,73,2,11,1,64,5,68,0,10,4,17
1,68,0,91,2,59,3,78,4,92,5,10
2,84,0,73,4,91,5,37,3,65,1,65
1,1,3,68,5,48,2,45,4,8,0,24
